output/log/model_MTZ_ulysses16.log
Version identifier: 20.1.0.0 | 2020-11-10 | 9bedb6d68
CPXPARAM_RandomSeed                              1234
CPXPARAM_TimeLimit                               3600
Tried aggregator 1 time.
MIP Presolve eliminated 0 rows and 17 columns.
Reduced MIP has 242 rows, 255 columns, and 1110 nonzeros.
Reduced MIP has 240 binaries, 15 generals, 0 SOSs, and 0 indicators.
Presolve time = 0.00 sec. (0.68 ticks)
Probing time = 0.00 sec. (0.74 ticks)
Tried aggregator 1 time.
Detecting symmetries...
Reduced MIP has 242 rows, 255 columns, and 1110 nonzeros.
Reduced MIP has 240 binaries, 15 generals, 0 SOSs, and 0 indicators.
Presolve time = 0.00 sec. (0.87 ticks)
Probing time = 0.00 sec. (0.75 ticks)
Clique table members: 137.
MIP emphasis: balance optimality and feasibility.
MIP search method: dynamic search.
Parallel mode: deterministic, using up to 8 threads.
Root relaxation solution time = 0.00 sec. (0.43 ticks)

        Nodes                                         Cuts/
   Node  Left     Objective  IInf  Best Integer    Best Bound    ItCnt     Gap

*     0+    0                        14539.0000        0.0000           100.00%
      0     0     5666.6667    33    14539.0000     5666.6667       32   61.02%
      0     0     6113.0000    40    14539.0000      Cuts: 47       53   57.95%
      0     0     6119.4186    38    14539.0000      Cuts: 49       84   57.91%
      0     0     6119.4186    35    14539.0000      Cuts: 15       89   57.91%
      0     0     6119.4186    35    14539.0000       Cuts: 9       93   57.91%
      0     0     6119.4186    35    14539.0000   ZeroHalf: 2       94   57.91%
Detecting symmetries...
*     0+    0                         6895.0000     6119.4186            11.25%
Detecting symmetries...
      0     2     6119.4186    35     6895.0000     6124.2667       94   11.18%
Elapsed time = 0.08 sec. (25.96 ticks, tree = 0.02 MB, solutions = 2)
*   101+   20                         6878.0000     6132.2596            10.84%
*   617   281      integral     0     6870.0000     6183.9333     3248    9.99%
*  1088   447      integral     0     6859.0000     6283.5862     4977    8.39%

Performing restart 1

Repeating presolve.
Tried aggregator 1 time.
MIP Presolve eliminated 0 rows and 45 columns.
Reduced MIP has 242 rows, 210 columns, and 981 nonzeros.
Reduced MIP has 195 binaries, 15 generals, 0 SOSs, and 0 indicators.
Presolve time = 0.00 sec. (0.60 ticks)
Tried aggregator 1 time.
MIP Presolve eliminated 26 rows and 0 columns.
MIP Presolve modified 12 coefficients.
Reduced MIP has 216 rows, 210 columns, and 929 nonzeros.
Reduced MIP has 195 binaries, 15 generals, 0 SOSs, and 0 indicators.
Presolve time = 0.00 sec. (0.70 ticks)
Represolve time = 0.00 sec. (3.36 ticks)
   5390     0     6225.5000    42     6859.0000      Cuts: 28    29638    5.56%
   5390     0     6228.0000    46     6859.0000      Cuts: 26    29653    5.56%
   5831   139     6445.7467    21     6859.0000     6477.6667    31261    5.56%

Clique cuts applied:  6
Cover cuts applied:  4
Implied bound cuts applied:  2
Mixed integer rounding cuts applied:  8
Zero-half cuts applied:  9
Multi commodity flow cuts applied:  1
Lift and project cuts applied:  7
Gomory fractional cuts applied:  3

Root node processing (before b&c):
  Real time             =    0.08 sec. (25.84 ticks)
Parallel b&c, 8 threads:
  Real time             =    0.87 sec. (445.71 ticks)
  Sync time (average)   =    0.11 sec.
  Wait time (average)   =    0.00 sec.
                          ------------
Total (root+branch&cut) =    0.95 sec. (471.55 ticks)
